50
547 125 281 431 17 499 953 429 835 961 21 14 437 960 455 798 672 46 466 644 160 133 668 301 691 278 77 375 788 349 546 774 278 867 42 451 242 171 900 167 781 472 946 886 17 952 559 727 106 719 
546 123 279 429 15 498 951 429 834 960 21 12 435 960 453 798 672 45 465 642 159 132 666 300 690 276 75 375 786 348 546 774 276 867 42 450 240 171 900 165 780 471 945 885 15 951 558 726 105 717 
11888
